param set_len = 26;
param target_sum = 16473237;
param values := [0] 1809949 [1] 1457770 [2] 1189788 [3] 1428707 [4] 648289 [5] 1820134 [6] 1822535 [7] 946004 [8] 1228757 [9] 1632308 [10] 1349860 [11] 679432 [12] 875313 [13] 1040520 [14] 1526406 [15] 1012371 [16] 1190032 [17] 1551346 [18] 732115 [19] 1716123 [20] 1367748 [21] 492141 [22] 826448 [23] 1614506 [24] 363146 [25] 1799517 ;
